(declare-sort $$unsorted 0)
(declare-fun tptp.op ($$unsorted $$unsorted) $$unsorted)
(assert (forall ((X0 $$unsorted) (X1 $$unsorted)) (= (tptp.op X0 X0) (tptp.op (tptp.op X0 X1) X1))))
(assert (not (forall ((X0 $$unsorted) (X1 $$unsorted)) (let ((_let_1 (tptp.op X0 X0))) (= _let_1 (tptp.op (tptp.op _let_1 X1) X1))))))
(set-info :filename Equation362_implies_Equation4068)
(check-sat-assuming ( true ))
